c SAT Generator for power-law distributed variable frequencies
c -g u -v 20 -c 91 -k 3 -p 2.750000 -b 3.200000 -f /home/schmidt/Devel/ni-kop-sat/data/ensemble/ruf20-91/ruf20-91-566 -u 1 -U 1 -s 3924623489
p cnf 20 91
-11 15 17 0
1 8 -14 0
1 -5 14 0
-1 -7 12 0
2 -10 19 0
12 -17 -18 0
-5 -10 -11 0
-3 -6 -12 0
12 -18 20 0
6 -7 10 0
-8 -10 12 0
5 9 15 0
9 -15 19 0
-1 9 14 0
-14 -18 20 0
3 9 11 0
-9 10 -15 0
-6 -14 -18 0
3 5 -12 0
9 -10 -17 0
-6 -15 -19 0
-3 -9 -14 0
4 -5 -13 0
16 -19 20 0
-3 13 -16 0
-4 -19 -20 0
-4 14 18 0
8 -16 -20 0
-3 -12 19 0
2 18 -19 0
8 12 19 0
-1 -16 -18 0
-1 2 20 0
-2 -15 -19 0
7 8 -15 0
-3 -4 -9 0
-4 -5 -7 0
-1 -5 -15 0
-1 -2 -9 0
7 8 -9 0
-2 -8 12 0
1 -8 -19 0
-10 14 -18 0
7 -10 13 0
-14 -15 -17 0
1 11 19 0
-11 -12 19 0
4 6 13 0
-4 14 -15 0
-8 9 15 0
4 -8 -18 0
-5 -8 9 0
-7 9 10 0
-3 8 16 0
5 -13 -17 0
8 12 -20 0
6 7 -10 0
-13 -17 18 0
-3 14 18 0
9 -10 -20 0
-1 3 -8 0
13 14 -17 0
-3 6 -11 0
3 6 -7 0
-4 -7 15 0
7 -8 -10 0
-4 -14 -18 0
-3 12 19 0
8 15 16 0
-4 -6 -14 0
1 9 -11 0
-7 12 16 0
3 -12 14 0
-2 -5 -14 0
-2 -11 15 0
-13 18 20 0
7 -17 18 0
5 7 8 0
-3 13 -19 0
2 9 20 0
8 -10 -16 0
-2 11 -18 0
-6 13 -17 0
-7 16 20 0
-8 -9 19 0
-4 -16 -19 0
-3 6 12 0
1 6 -14 0
-2 -6 -8 0
-10 -12 18 0
-3 -7 -15 0
